!#XTB_KEY# opt PAL2
%geom
maxiter 999
#DATA[PREP_CONST]#end
*xyz #CHG# #MULT#
#AXYZ#
*

