!#XTB_KEY# IRC PAL4
%irc
MaxIter 256
Direction #DIRECTION#
end
*xyz #CHG# #MULT#
#AXYZ#
*

